NAME : ch130.opt.tour
COMMENT : Tour result for ch130.tsp (6349)
TYPE : TOUR
DIMENSION : 130
TOUR_SECTION
1
41
39
117
83
3
114
108
8
18
21
33
22
37
47
40
23
122
55
60
51
42
44
93
20
46
80
118
4
35
54
31
27
19
100
116
24
15
29
95
79
38
12
87
81
103
77
94
89
110
98
48
25
113
32
36
84
119
111
123
101
82
57
9
56
65
52
75
74
99
73
92
106
58
49
53
120
72
91
6
102
10
14
96
67
13
121
126
30
59
78
90
125
85
66
28
115
62
112
105
128
16
45
5
11
76
109
61
129
124
64
69
86
88
26
7
97
70
63
68
43
104
107
127
34
17
2
50
130
71
-1
EOF